1437
16 7 24 13 94 59 51 31 56 33 49 93 76 64 77 2 70 72 9 78 38 81 1 92 42 37 69 14 40 4 84 18 15 43 22 25 44 3 26 30 8 83 27 95 86 71 54 19 41 34 91 35 80 96 62 6 68 66 65 10 87 21 98 61 36 5 52 55 32 97 11 58 47 99 53 73 82 45 89 79 60 63 57 29 88 75 17 39 12 48 85 50 23 20 74 90 46 28 67 
